letting input=[14,31,44,41,47,7,48,39,32,15,24,50,42,9,46,31,37,4,24,39,44,10,46,9,36]
letting output=[50,25,21,9,1,49,3,23,47,18,26,11,11,6,34,40,38,43,13,19,50,49,45,42,44]
letting MAX_OPS=396
letting num_registers=1
